1 3 100 246051.03
1 3 200 246760.51
1 3 300 238937.43
2 3 100 282797.97
2 3 200 286314.39
2 3 300 287759.27
3 3 100 286550.88
3 3 200 284761.01
3 3 300 286389.65
4 3 100 285124.96
4 3 200 285403.46
4 3 300 288419.87
5 3 100 279461.36
5 3 200 279601.51
5 3 300 280146.09
